(set-info :smt-lib-version 2.6)
(set-logic AUFBVFPDTNIRA)
(set-info :source |
Generated by: AdaCore
Generated on: 2020-03-06
Generator: SPARK
Application: Program verification for Ada
Target solver: CVC4
|)
(set-info :license "https://creativecommons.org/licenses/by/4.0/")
(set-info :category "industrial")
(set-info :status unknown)
;;; generated by SMT-LIB2 driver
;;; SMT-LIB2 driver: bit-vectors, common part
;;; SMT-LIB2: integer arithmetic
(declare-sort string 0)

(declare-datatypes ((tuple0 0))
(((Tuple0))))
(declare-sort us_private 0)

(declare-fun private__bool_eq (us_private us_private) Bool)

(declare-const us_null_ext__ us_private)

(declare-sort us_type_of_heap 0)

(declare-datatypes ((us_type_of_heap__ref 0))
(((us_type_of_heap__refqtmk (us_type_of_heap__content us_type_of_heap)))))
(declare-sort us_image 0)

(declare-datatypes ((int__ref 0))
(((int__refqtmk (int__content Int)))))
(declare-datatypes ((bool__ref 0))
(((bool__refqtmk (bool__content Bool)))))
(declare-datatypes ((us_fixed__ref 0))
(((us_fixed__refqtmk (us_fixed__content Int)))))
(declare-datatypes ((real__ref 0))
(((real__refqtmk (real__content Real)))))
(declare-datatypes ((us_private__ref 0))
(((us_private__refqtmk (us_private__content us_private)))))
(define-fun int__ref___projection ((a int__ref)) Int (int__content a))

(define-fun us_fixed__ref___projection ((a us_fixed__ref)) Int (us_fixed__content
                                                               a))

(define-fun bool__ref___projection ((a bool__ref)) Bool (bool__content a))

(define-fun real__ref___projection ((a real__ref)) Real (real__content a))

(define-fun us_private__ref___projection ((a us_private__ref)) us_private 
  (us_private__content a))

(define-fun in_range ((x Int)) Bool (or (= x 0) (= x 1)))

(declare-fun attr__ATTRIBUTE_IMAGE (Bool) us_image)

(declare-fun attr__ATTRIBUTE_VALUE__pre_check (us_image) Bool)

(declare-fun attr__ATTRIBUTE_VALUE (us_image) Bool)

(declare-sort integer 0)

(declare-fun integerqtint (integer) Int)

;; integer'axiom
  (assert
  (forall ((i integer))
  (and (<= (- 2147483648) (integerqtint i)) (<= (integerqtint i) 2147483647))))

(define-fun in_range1 ((x Int)) Bool (and (<= (- 2147483648) x)
                                     (<= x 2147483647)))

(declare-fun attr__ATTRIBUTE_IMAGE1 (Int) us_image)

(declare-fun attr__ATTRIBUTE_VALUE__pre_check1 (us_image) Bool)

(declare-fun attr__ATTRIBUTE_VALUE1 (us_image) Int)

(declare-fun user_eq (integer integer) Bool)

(declare-const dummy integer)

(declare-datatypes ((integer__ref 0))
(((integer__refqtmk (integer__content integer)))))
(define-fun integer__ref_integer__content__projection ((a integer__ref)) integer 
  (integer__content a))

(define-fun dynamic_invariant ((temp___expr_18 Int) (temp___is_init_14 Bool)
  (temp___skip_constant_15 Bool) (temp___do_toplevel_16 Bool)
  (temp___do_typ_inv_17 Bool)) Bool (=>
                                    (or (= temp___is_init_14 true)
                                    (<= (- 2147483648) 2147483647))
                                    (in_range1 temp___expr_18)))

(declare-sort character 0)

(define-fun in_range2 ((x Int)) Bool (and (<= 0 x) (<= x 255)))

(declare-fun attr__ATTRIBUTE_IMAGE2 (Int) us_image)

(declare-fun attr__ATTRIBUTE_VALUE__pre_check2 (us_image) Bool)

(declare-fun attr__ATTRIBUTE_VALUE2 (us_image) Int)

(declare-fun user_eq1 (character character) Bool)

(declare-const dummy1 character)

(declare-datatypes ((character__ref 0))
(((character__refqtmk (character__content character)))))
(define-fun character__ref_character__content__projection ((a character__ref)) character 
  (character__content a))

(declare-fun to_rep (character) Int)

(declare-fun of_rep (Int) character)

;; inversion_axiom
  (assert
  (forall ((x character))
  (! (= (of_rep (to_rep x)) x) :pattern ((to_rep x)) )))

;; range_axiom
  (assert
  (forall ((x character)) (! (in_range2 (to_rep x)) :pattern ((to_rep x)) )))

;; coerce_axiom
  (assert
  (forall ((x Int))
  (! (=> (in_range2 x) (= (to_rep (of_rep x)) x)) :pattern ((to_rep
                                                            (of_rep x))) )))

(declare-datatypes ((map__ref 0))
(((map__refqtmk (map__content (Array Int character))))))
(declare-fun slide ((Array Int character) Int Int) (Array Int character))

;; slide_eq
  (assert
  (forall ((a (Array Int character)))
  (forall ((first Int))
  (! (= (slide a first first) a) :pattern ((slide a first first)) ))))

;; slide_def
  (assert
  (forall ((a (Array Int character)))
  (forall ((old_first Int))
  (forall ((new_first Int))
  (forall ((i Int))
  (! (= (select (slide a old_first new_first) i) (select a (- i (- new_first old_first)))) :pattern ((select 
  (slide a old_first new_first) i)) ))))))

(define-fun bool_eq ((a (Array Int character)) (a__first Int) (a__last Int)
  (b (Array Int character)) (b__first Int)
  (b__last Int)) Bool (ite (and
                           (ite (<= a__first a__last)
                           (and (<= b__first b__last)
                           (= (- a__last a__first) (- b__last b__first)))
                           (< b__last b__first))
                           (forall ((temp___idx_91 Int))
                           (=>
                           (and (<= a__first temp___idx_91)
                           (<= temp___idx_91 a__last))
                           (= (to_rep (select a temp___idx_91)) (to_rep
                                                                (select b (+ (- b__first a__first) temp___idx_91)))))))
                      true false))

;; bool_eq_rev
  (assert
  (forall ((a (Array Int character)) (b (Array Int character)))
  (forall ((a__first Int) (a__last Int) (b__first Int) (b__last Int))
  (=> (= (bool_eq b b__first b__last a a__first a__last) true)
  (and
  (ite (<= a__first a__last)
  (and (<= b__first b__last) (= (- a__last a__first) (- b__last b__first)))
  (< b__last b__first))
  (forall ((temp___idx_91 Int))
  (=> (and (<= a__first temp___idx_91) (<= temp___idx_91 a__last))
  (= (to_rep (select a temp___idx_91)) (to_rep
                                       (select b (+ (- b__first a__first) temp___idx_91)))))))))))

(declare-const attr__ATTRIBUTE_ADDRESS Int)

(declare-const attr__ATTRIBUTE_ADDRESS1 Int)

(declare-const attr__ATTRIBUTE_ADDRESS2 Int)

(declare-const attr__ATTRIBUTE_ADDRESS3 Int)

(declare-sort tTnew_strSP1 0)

(declare-fun tTnew_strSP1qtint (tTnew_strSP1) Int)

;; tTnew_strSP1'axiom
  (assert
  (forall ((i tTnew_strSP1))
  (and (<= 1 (tTnew_strSP1qtint i)) (<= (tTnew_strSP1qtint i) 5))))

(define-fun in_range3 ((x Int)) Bool (and (<= 1 x) (<= x 5)))

(declare-fun attr__ATTRIBUTE_IMAGE3 (Int) us_image)

(declare-fun attr__ATTRIBUTE_VALUE__pre_check3 (us_image) Bool)

(declare-fun attr__ATTRIBUTE_VALUE3 (us_image) Int)

(declare-fun user_eq2 (tTnew_strSP1 tTnew_strSP1) Bool)

(declare-const dummy2 tTnew_strSP1)

(declare-datatypes ((tTnew_strSP1__ref 0))
(((tTnew_strSP1__refqtmk (tTnew_strSP1__content tTnew_strSP1)))))
(define-fun tTnew_strSP1__ref_tTnew_strSP1__content__projection ((a tTnew_strSP1__ref)) tTnew_strSP1 
  (tTnew_strSP1__content a))

(declare-sort tTnew_subSP1 0)

(declare-fun tTnew_subSP1qtint (tTnew_subSP1) Int)

;; tTnew_subSP1'axiom
  (assert
  (forall ((i tTnew_subSP1))
  (and (<= 1 (tTnew_subSP1qtint i)) (<= (tTnew_subSP1qtint i) 5))))

(define-fun in_range4 ((x Int)) Bool (and (<= 1 x) (<= x 5)))

(declare-fun attr__ATTRIBUTE_IMAGE4 (Int) us_image)

(declare-fun attr__ATTRIBUTE_VALUE__pre_check4 (us_image) Bool)

(declare-fun attr__ATTRIBUTE_VALUE4 (us_image) Int)

(declare-fun user_eq3 (tTnew_subSP1 tTnew_subSP1) Bool)

(declare-const dummy3 tTnew_subSP1)

(declare-datatypes ((tTnew_subSP1__ref 0))
(((tTnew_subSP1__refqtmk (tTnew_subSP1__content tTnew_subSP1)))))
(define-fun tTnew_subSP1__ref_tTnew_subSP1__content__projection ((a tTnew_subSP1__ref)) tTnew_subSP1 
  (tTnew_subSP1__content a))

(declare-sort positive 0)

(declare-fun positiveqtint (positive) Int)

;; positive'axiom
  (assert
  (forall ((i positive))
  (and (<= 1 (positiveqtint i)) (<= (positiveqtint i) 2147483647))))

(define-fun in_range5 ((x Int)) Bool (and (<= 1 x) (<= x 2147483647)))

(declare-fun attr__ATTRIBUTE_IMAGE5 (Int) us_image)

(declare-fun attr__ATTRIBUTE_VALUE__pre_check5 (us_image) Bool)

(declare-fun attr__ATTRIBUTE_VALUE5 (us_image) Int)

(declare-fun user_eq4 (positive positive) Bool)

(declare-const dummy4 positive)

(declare-datatypes ((positive__ref 0))
(((positive__refqtmk (positive__content positive)))))
(define-fun positive__ref_positive__content__projection ((a positive__ref)) positive 
  (positive__content a))

(define-fun to_rep1 ((x integer)) Int (integerqtint x))

(declare-fun of_rep1 (Int) integer)

;; inversion_axiom
  (assert
  (forall ((x integer))
  (! (= (of_rep1 (to_rep1 x)) x) :pattern ((to_rep1 x)) )))

;; range_axiom
  (assert
  (forall ((x integer)) (! (in_range1 (to_rep1 x)) :pattern ((to_rep1 x)) )))

;; coerce_axiom
  (assert
  (forall ((x Int))
  (! (=> (in_range1 x) (= (to_rep1 (of_rep1 x)) x)) :pattern ((to_rep1
                                                              (of_rep1 x))) )))

(declare-sort t 0)

(declare-fun first (t) integer)

(declare-fun last (t) integer)

(declare-fun mk (Int Int) t)

;; mk_def
  (assert
  (forall ((f Int) (l Int))
  (! (=> (in_range1 f)
     (=> (in_range1 l)
     (and (= (to_rep1 (first (mk f l))) f) (= (to_rep1 (last (mk f l))) l)))) :pattern (
  (mk f l)) )))

(define-fun dynamic_property ((range_first Int) (range_last Int) (low Int)
  (high Int)) Bool (and (in_range1 low)
                   (and (in_range1 high)
                   (=> (<= low high) (and (in_range5 low) (in_range5 high))))))

(declare-datatypes ((us_t 0))
(((us_tqtmk (elts (Array Int character))(rt t)))))
(define-fun to_array ((a us_t)) (Array Int character) (elts a))

(define-fun of_array ((a (Array Int character)) (f Int)
  (l Int)) us_t (us_tqtmk a (mk f l)))

(define-fun first1 ((a us_t)) Int (to_rep1 (first (rt a))))

(define-fun last1 ((a us_t)) Int (to_rep1 (last (rt a))))

(define-fun length ((a us_t)) Int (ite (<= (first1 a) (last1 a))
                                  (+ (- (last1 a) (first1 a)) 1) 0))

(declare-const value__size Int)

(declare-const object__size Int)

(declare-const component__size Int)

(declare-const alignment Int)

;; value__size_axiom
  (assert (<= 0 value__size))

;; object__size_axiom
  (assert (<= 0 object__size))

;; component__size_axiom
  (assert (<= 0 component__size))

;; alignment_axiom
  (assert (<= 0 alignment))

(define-fun bool_eq1 ((x us_t)
  (y us_t)) Bool (bool_eq (elts x) (to_rep1 (first (rt x)))
                 (to_rep1 (last (rt x))) (elts y) (to_rep1 (first (rt y)))
                 (to_rep1 (last (rt y)))))

(declare-fun user_eq5 (us_t us_t) Bool)

(declare-const dummy5 us_t)

(declare-datatypes ((string____ref 0))
(((string____refqtmk (string____content us_t)))))
(define-fun string____ref_string____content__projection ((a string____ref)) us_t 
  (string____content a))

(declare-datatypes ((t9b__ref 0))
(((t9b__refqtmk (t9b__content us_t)))))
(define-fun t9b__ref_t9b__content__projection ((a t9b__ref)) us_t (t9b__content
                                                                  a))

(define-fun dynamic_invariant1 ((temp___expr_74 Int) (temp___is_init_70 Bool)
  (temp___skip_constant_71 Bool) (temp___do_toplevel_72 Bool)
  (temp___do_typ_inv_73 Bool)) Bool (=>
                                    (or (= temp___is_init_70 true)
                                    (<= 0 255)) (in_range2 temp___expr_74)))

(assert
;; defqtvc
 ;; File "foo.adb", line 11, characters 0-0
  (not
  (forall ((new_str (Array Int character)) (new_sub (Array Int character))
  (pos Int))
  (=> (= pos 1)
  (=> (dynamic_invariant pos true false true true)
  (=>
  (=> (<= pos 5) (and (and (<= 1 pos) (<= pos 5)) (and (<= 1 5) (<= 5 5))))
  (let ((temp___183 (of_array new_str pos 5)))
  (=>
  (not
  (= (bool_eq (to_array temp___183) (first1 temp___183) (last1 temp___183)
     new_sub 1 5) true))
  (forall ((pos1 Int))
  (=>
  (= (and (ite (dynamic_invariant pos1 true true true true) true false) 
  (ite (not
       (= (let ((temp___187 (of_array new_str pos1 5)))
          (bool_eq (to_array temp___187) (first1 temp___187)
          (last1 temp___187) new_sub 1 5)) true))
  true false)) true) (in_range1 (+ pos1 1))))))))))))
(check-sat)
